
(set-logic ALL) 

(declare-datatype MyList ((Nil) (Cons (head Real) (tail MyList)) )) 
(declare-fun l0 () MyList) 
(declare-fun l1 () MyList) 
(declare-fun l2 () MyList) 
(declare-fun l3 () MyList) 
(declare-fun i0 () Real) 
(declare-fun i1 () Real) 
(assert (is-Cons Nil) )
(assert (and (= l1 Nil) (is-Nil l3) (is-Cons Nil)) )
(assert (= l3 l0) )
(assert (or (= l3 l0) (= l2 Nil) (is-Nil Nil)) )
(assert (or (= l3 l0) (= l1 Nil) (= l0 Nil) (is-Cons Nil)) )
(assert (and (= l2 Nil) (= l3 Nil)) )
(assert (or (= l3 Nil) (= l2 l1) (= l1 l3) (= l0 l2)) )
(assert (and (= l2 l2) (= l2 l0) (is-Cons Nil) (= l2 Nil)) )
(check-sat)
